sat
(:SPACER-cex-depth                    2
 :SPACER-inductive-gen                1
 :SPACER-inductive-gen-weaken-fail    1
 :SPACER-inductive-gen-weaken-success 1
 :SPACER-max-depth                    2
 :SPACER-max-query-lvl                2
 :SPACER-num-active-lemmas            2
 :SPACER-num-is_invariant             2
 :SPACER-num-lemmas                   3
 :SPACER-num-pobs                     2
 :SPACER-num-queries                  2
 :SPACER-num-reach-queries            2
 :SPACER-num-reuse-reach-facts        1
 :added-eqs                           202
 :arith-assert-diseq                  20
 :arith-assert-lower                  98
 :arith-assert-upper                  106
 :arith-bound-prop                    20
 :arith-conflicts                     4
 :arith-eq-adapter                    50
 :arith-fixed-eqs                     36
 :arith-num-rows                      26
 :arith-offset-eqs                    18
 :arith-pivots                        38
 :arith-row-summations                64
 :arith-tableau-max-columns           68
 :arith-tableau-max-rows              26
 :conflicts                           22
 :decisions                           78
 :del-clause                          52
 :final-checks                        12
 :iuc_solver.num_proxies              5
 :max-memory                          30.22
 :memory                              30.22
 :mk-bool-var                         322
 :mk-clause                           302
 :num-allocs                          4291588
 :num-checks                          26
 :pool_solver.checks                  13
 :pool_solver.checks.sat              6
 :propagations                        314
 :rlimit-count                        4738
 :time                                0.02
 :time.pool_solver.smt.total          0.00
 :time.pool_solver.smt.total.sat      0.00
 :time.spacer.init_rules              0.00
 :time.spacer.solve                   0.01
 :time.spacer.solve.propagate         0.00
 :time.spacer.solve.reach             0.01)
(:max-memory   30.22
 :memory       30.22
 :num-allocs   4291588
 :rlimit-count 4738
 :time         0.02
 :total-time   0.04)
